unsat
(forall ((A (_ BitVec 1))
         (B (_ BitVec 1))
         (C (_ BitVec 1))
         (D (_ BitVec 1))
         (E (_ BitVec 1))
         (F (_ BitVec 1))
         (G (_ BitVec 32))
         (H (_ BitVec 22))
         (I (_ BitVec 1))
         (J (_ BitVec 1))
         (K (_ BitVec 1))
         (L (_ BitVec 1))
         (M (_ BitVec 4))
         (N (_ BitVec 4))
         (O (_ BitVec 1))
         (P (_ BitVec 1))
         (Q (_ BitVec 1))
         (R (_ BitVec 1))
         (S (_ BitVec 1))
         (T (_ BitVec 1))
         (U (_ BitVec 2))
         (V (_ BitVec 2))
         (W (_ BitVec 1))
         (X (_ BitVec 1))
         (Y (_ BitVec 1))
         (Z (_ BitVec 22))
         (A1 (_ BitVec 1))
         (B1 (_ BitVec 22))
         (C1 (_ BitVec 32))
         (D1 (_ BitVec 1))
         (E1 (_ BitVec 1))
         (F1 (_ BitVec 1))
         (G1 (_ BitVec 1))
         (H1 (_ BitVec 5))
         (I1 (_ BitVec 22))
         (J1 (_ BitVec 32))
         (K1 (_ BitVec 1))
         (L1 (_ BitVec 1))
         (M1 (_ BitVec 1))
         (N1 (_ BitVec 1))
         (O1 (_ BitVec 36))
         (P1 (_ BitVec 1))
         (Q1 (_ BitVec 3))
         (R1 (_ BitVec 1))
         (S1 (_ BitVec 1))
         (T1 (_ BitVec 2))
         (U1 (_ BitVec 1))
         (V1 (_ BitVec 1))
         (W1 (_ BitVec 1))
         (X1 (_ BitVec 1))
         (Y1 (_ BitVec 1))
         (Z1 (_ BitVec 32))
         (A2 (_ BitVec 1))
         (B2 (_ BitVec 4))
         (C2 (_ BitVec 1))
         (D2 (_ BitVec 22))
         (E2 (_ BitVec 1)))
  (! (let ((a!1 (or ((_ bit2bool 0) J)
                    (= ((_ extract 0 0) I1) #b0)
                    (not (= ((_ extract 1 1) T1) #b0))))
           (a!2 (or (= ((_ extract 0 0) I1) #b0)
                    (not (= M1 ((_ extract 2 2) B2)))
                    (not (= V1 ((_ extract 2 2) B2)))))
           (a!3 (or (not (= M1 #b0))
                    (ite (= G1 #b1)
                         (= ((_ extract 0 0) I1) #b0)
                         (= ((_ extract 1 1) I1) #b0))))
           (a!4 (or (not (= M1 #b1))
                    (not (= L1 #b0))
                    (= ((_ extract 31 28) O1) ((_ extract 21 18) Z))
                    (not (= ((_ extract 0 0) I1) #b1))))
           (a!5 (or (not (= L1 #b1))
                    (not (= V1 #b0))
                    (not (= ((_ extract 12 12) J1) #b0))
                    (= T1 #b00)))
           (a!6 (or (not (= V1 #b1))
                    (not (= E1 #b0))
                    (not (= ((_ extract 2 2) M) #b1))
                    (not ((_ bit2bool 0) I1))))
           (a!7 (not (or (= G1 #b0) (not (= H1 #b00001)))))
           (a!8 (ite (or (= G1 #b0) (not (= H1 #b00001))) (= L1 #b1) (= S #b1)))
           (a!9 (or (= G1 #b0)
                    (not (or (= L1 #b0) (= N1 #b0)))
                    (not (= ((_ extract 4 4) H1) #b0))
                    (not (bvule ((_ extract 3 0) H1) #x9))))
           (a!12 (and (or (not (= H1 #b00010)) (= R1 #b0) (= S1 #b0))
                      (not (= ((_ extract 4 1) H1) #x0)))))
     (let ((a!10 (ite (= L1 #b1)
                      (ite (or (= L1 #b0) (= V1 #b1)) (ite a!9 T1 #b11) #b00)
                      #b11))
           (a!13 (or (not (= G1 #b1)) a!12 (not (= ((_ extract 0 0) I1) #b1)))))
     (let ((a!11 (= (ite (or (= L1 #b1) (= R1 #b1)) a!10 #b10) #b10)))
     (let ((a!14 (and (or (not ((_ bit2bool 0) I1))
                          (= ((_ extract 2 2) H1) #b1))
                      (= K1 #b0)
                      (or (= G1 #b0) (= Q1 #b000))
                      (or ((_ bit2bool 0) O) (not (= R1 #b1)))
                      (or ((_ bit2bool 0) J) (not (= R1 #b1)) (not (= M1 #b0)))
                      (not (= T1 #b01))
                      (or (not ((_ bit2bool 0) I)) (not (= R1 #b1)))
                      (or (not (= X #b1)) (= ((_ extract 0 0) Q1) #b1))
                      (or (= L #b0) (= E1 #b1) (not (= M1 #b0)))
                      (or (= T1 #b00) (not (= X #b1)))
                      (or (not (= X #b1)) (= ((_ extract 2 2) Q1) #b1))
                      (or (not (= H1 #b00000))
                          (not (= M1 #b1))
                          (= ((_ extract 2 2) Q1) #b1))
                      (or (= T1 #b00) (= R1 #b0) (not (= S #b0)))
                      (or (not (= H1 #b00001)) (= R1 #b0) (= H B1))
                      (or ((_ bit2bool 0) X)
                          (= R1 #b0)
                          (not ((_ bit2bool 0) A1)))
                      (or (= G1 #b0)
                          (= L #b0)
                          (= E1 #b1)
                          (= ((_ extract 0 0) T1) #b1))
                      (or (not (= L1 #b1)) (not (= R1 #b1)))
                      a!1
                      a!2
                      (not (= Q1 #b111))
                      (not (= Q1 #b110))
                      (or (= T1 #b00)
                          (not (= W #b0))
                          (not (= L1 #b1))
                          (not (= V1 #b0)))
                      (or (not ((_ bit2bool 1) I1)) (not (= H1 #b00000)))
                      a!3
                      (or (= L #b0) (not (= T #b0)) (not (= G1 #b1)) (= E1 #b1))
                      (or (not (= R1 #b1)) (= T #b1))
                      a!4
                      (or (= G1 #b0)
                          (= ((_ extract 1 1) T1) #b1)
                          (not (= J #b0))
                          (not (= M1 #b1))
                          (not (= L1 #b0)))
                      (or (not (= T #b0)) (not (= D1 #b1)) (= E1 #b1))
                      (or (= I #b1) (= T1 #b00) (= L1 #b0) (not (= V1 #b0)))
                      a!5
                      (or (= ((_ extract 35 32) O1) ((_ extract 21 18) Z))
                          (not ((_ bit2bool 1) I1))
                          (not (= L1 #b0)))
                      (or (not ((_ bit2bool 1) I1)) (not (= J #b0)))
                      (or (= H1 #b00000)
                          (not ((_ bit2bool 1) I1))
                          (not (= A2 #b1))
                          (not (= M1 #b0)))
                      (or (= H1 #b00000)
                          (not (= T #b0))
                          (not ((_ bit2bool 1) I1))
                          (not (= M1 #b0)))
                      (or (= H1 #b00000)
                          (not (= O #b0))
                          (not ((_ bit2bool 1) I1))
                          (not (= M1 #b0)))
                      (or (= H1 #b00000)
                          (not ((_ bit2bool 1) I1))
                          (not (= I #b1))
                          (not (= M1 #b0)))
                      a!6
                      (or (= ((_ extract 4 1) H1) #x0) (not (= M1 #b0)))
                      (or (not (= Q1 #b000))
                          (not (= R1 #b1))
                          (not (= M1 #b0))
                          (and a!7 (= S #b1)))
                      (or (not ((_ bit2bool 1) I1)) (not (= Y #b1)))
                      (or (= S1 #b0) (= ((_ extract 0 0) Q1) #b1))
                      (or (not (= S1 Y1)) (= Y1 #b0) (= Q1 #b001))
                      (or (= Q1 #b000) (not ((_ bit2bool 0) D1)) a!8 a!11)
                      (or (not (= Q1 #b001))
                          (not (= Y #b1))
                          (= T #b1)
                          (= W #b1))
                      a!13
                      (or (not ((_ bit2bool 1) I1))
                          (not (= M1 #b1))
                          (not ((_ bit2bool 0) A1)))
                      (or (not ((_ bit2bool 1) I1))
                          (not (= L1 #b1))
                          (not (= M1 #b0)))
                      (or (= ((_ extract 4 1) H1) #x0)
                          ((_ bit2bool 0) E1)
                          (not ((_ bit2bool 0) A1)))
                      (or (= G1 #b0)
                          ((_ bit2bool 0) T)
                          (not (= Y #b1))
                          (not ((_ bit2bool 0) I))
                          (= ((_ extract 8 8) J1) #b1)
                          (= ((_ extract 12 12) J1) #b0))
                      (or (not ((_ bit2bool 0) I1))
                          (= ((_ extract 0 0) H1) #b1))
                      (or (= G1 #b0) (not (= O #b0)) (not (= Y #b1)))
                      (or (= ((_ extract 4 1) H1) #x0)
                          (not (= J #b0))
                          (not (= A1 #b1)))
                      (or (not (= F1 #b1)) (not ((_ bit2bool 0) A1)))
                      (or (= L1 #b0) (= ((_ extract 0 0) I1) #b0))
                      (or (= ((_ extract 35 32) O1) ((_ extract 21 18) Z))
                          (= L1 #b0)
                          (not ((_ bit2bool 1) I1))))))
       (= (INV!slice!1 A
                       B
                       C
                       D
                       E
                       F
                       G
                       H
                       I
                       J
                       K
                       L
                       M
                       N
                       O
                       P
                       Q
                       R
                       S
                       T
                       U
                       V
                       W
                       X
                       Y
                       Z
                       A1
                       B1
                       C1
                       D1
                       E1
                       F1
                       G1
                       H1
                       I1
                       J1
                       K1
                       L1
                       M1
                       N1
                       O1
                       P1
                       Q1
                       R1
                       S1
                       T1
                       U1
                       V1
                       W1
                       X1
                       Y1
                       Z1
                       A2
                       B2
                       C2
                       D2
                       E2)
          a!14)))))
     :weight 0))
